MARKOV
82
2 2 2 2 2 2 2 2 2 2 2 2 2 2 2 2 2 2 2 2 4 4 2 2 2 2 2 2 2 2 2 2 2 2 2 2 2 2 2 2 2 2 2 2 2 2 2 2 2 2 2 2 2 2 4 4 4 2 2 2 2 2 4 4 4 4 4 2 2 2 2 4 4 4 2 4 4 4 4 2 4 4
462
2 65 69
2 67 63
2 8 2
2 78 75
2 8 7
2 14 15
2 8 10
2 65 61
2 66 63
2 80 76
2 73 77
2 54 51
2 75 58
2 56 54
2 64 50
2 6 5
2 51 57
2 80 71
2 11 5
2 78 79
2 71 58
2 78 71
2 18 15
2 22 24
2 56 67
2 71 69
2 0 2
2 19 16
2 62 74
2 80 81
2 28 26
2 78 81
2 55 50
2 64 67
2 75 65
2 66 65
2 57 62
2 69 74
2 51 58
2 54 60
2 65 53
2 59 62
2 65 62
2 12 15
2 55 54
2 13 12
2 9 6
2 66 58
2 14 6
2 54 61
2 31 35
2 55 67
2 54 52
2 53 48
2 72 67
2 66 69
2 75 70
2 9 8
2 27 26
2 54 49
2 68 67
2 72 79
2 72 71
2 61 60
2 66 61
2 71 70
2 9 12
2 50 62
2 14 17
2 75 64
2 80 63
2 61 69
2 55 48
2 56 57
2 4 1
2 72 74
2 9 7
2 17 15
2 14 10
2 56 59
2 18 17
2 59 50
2 65 50
2 4 6
2 54 62
2 78 77
2 29 28
2 62 69
2 64 59
2 67 62
2 56 51
2 7 1
2 65 54
2 66 53
2 66 70
2 80 78
2 3 1
2 55 57
2 64 51
2 45 44
2 72 57
2 7 6
2 4 2
2 18 12
2 66 64
2 55 59
2 65 71
2 77 62
2 58 62
2 72 59
2 12 10
2 47 44
2 73 76
2 68 63
2 2 5
2 75 76
2 65 74
2 75 67
2 56 60
2 71 76
2 63 69
2 75 71
2 55 51
2 62 52
2 55 58
2 71 67
2 31 33
2 62 53
2 62 70
2 71 79
2 63 61
2 72 58
2 63 70
2 23 25
2 73 68
2 7 10
2 9 3
2 64 60
2 14 16
2 54 68
2 75 68
2 56 52
2 66 50
2 56 49
2 66 72
2 17 10
2 31 30
2 49 46
2 70 60
2 64 61
2 56 55
2 76 79
2 64 52
2 8 1
2 31 32
2 66 54
2 59 57
2 65 57
2 53 52
2 77 72
2 81 79
2 50 63
2 80 62
2 66 67
2 65 59
2 76 74
2 1 5
2 63 53
2 66 71
2 45 46
2 63 62
2 49 48
2 34 35
2 13 15
2 55 52
2 59 58
2 56 62
2 12 16
2 55 70
2 77 79
2 47 46
2 55 49
2 70 69
2 73 63
2 50 57
2 14 11
2 65 51
2 65 58
2 14 5
2 54 63
2 75 63
2 64 62
2 77 75
2 55 64
2 71 63
2 77 74
2 72 64
2 18 11
2 62 76
2 12 11
2 78 76
2 47 48
2 54 57
2 58 63
2 17 16
2 51 63
2 80 72
2 8 12
2 68 62
2 66 57
2 4 5
2 13 6
2 66 59
2 12 5
2 56 68
2 9 1
2 65 52
2 54 58
2 58 57
2 65 70
2 80 79
2 73 69
2 32 30
2 71 60
2 54 69
2 75 69
2 64 68
2 13 17
2 66 51
2 7 11
2 80 75
2 75 61
2 7 5
2 65 64
2 11 15
2 80 74
2 72 76
2 13 7
2 13 10
2 71 61
2 3 5
2 78 74
2 73 65
2 25 26
2 34 33
2 72 68
2 63 74
2 17 11
2 55 68
2 78 63
2 9 2
2 73 66
2 9 10
2 16 15
2 64 74
2 66 60
2 56 63
2 73 70
2 49 52
2 73 62
2 34 32
2 54 53
2 54 70
2 23 26
2 75 62
2 14 8
2 64 63
2 71 62
2 73 64
2 14 12
2 14 7
2 59 67
2 66 55
2 65 67
2 8 11
2 19 15
2 61 52
2 8 5
2 62 60
2 64 57
2 70 74
2 55 63
2 80 77
2 51 62
2 0 3
2 13 16
2 72 63
2 12 6
2 18 10
2 59 68
2 65 68
2 6 10
2 62 61
2 4 8
2 56 58
2 11 10
2 66 62
2 54 50
2 56 69
2 73 72
2 27 25
2 55 69
2 64 58
2 75 72
2 56 61
2 18 19
2 68 57
2 4 7
2 53 60
2 3 6
2 71 68
2 64 69
2 56 65
2 73 67
2 63 60
2 16 10
2 73 79
2 54 67
2 73 71
2 27 28
2 75 79
2 14 18
2 55 60
2 51 50
2 57 63
2 73 75
2 13 11
2 72 60
2 13 5
2 54 48
2 63 52
2 73 74
2 78 62
2 25 24
2 59 63
2 3 2
2 65 63
2 3 7
2 75 74
2 72 69
2 80 73
2 55 61
2 9 13
2 56 53
2 80 64
2 77 76
2 14 13
2 56 70
2 71 74
2 72 61
2 58 67
2 66 68
2 9 11
2 77 71
2 18 16
2 9 5
2 35 33
2 56 64
2 64 53
2 64 70
2 77 81
2 23 24
2 2 1
2 8 6
2 4 3
2 0 1
2 55 53
2 2 6
2 55 62
2 71 57
2 66 74
2 54 59
2 75 59
2 65 60
2 72 70
2 72 62
2 32 33
2 78 72
2 71 59
2 56 50
1 0
1 1
1 2
1 3
1 4
1 5
1 6
1 7
1 8
1 9
1 10
1 11
1 12
1 13
1 14
1 15
1 16
1 17
1 18
1 19
1 20
1 21
1 22
1 23
1 24
1 25
1 26
1 27
1 28
1 29
1 30
1 31
1 32
1 33
1 34
1 35
1 36
1 37
1 38
1 39
1 40
1 41
1 42
1 43
1 44
1 45
1 46
1 47
1 48
1 49
1 50
1 51
1 52
1 53
1 54
1 55
1 56
1 57
1 58
1 59
1 60
1 61
1 62
1 63
1 64
1 65
1 66
1 67
1 68
1 69
1 70
1 71
1 72
1 73
1 74
1 75
1 76
1 77
1 78
1 79
1 80
1 81
8
1.0
1.0
0.0001
1.0
1.0
1.0
1.0
1.0

8
0.0001
1.0
0.0001
1.0
1.0
1.0
1.0
1.0

4
0.0001
1.0
1.0
1.0

16
0.0001
1.0
1.0
1.0
1.0
0.0001
1.0
1.0
1.0
1.0
0.0001
1.0
1.0
1.0
1.0
1.0

4
0.0001
1.0
1.0
1.0

4
0.0001
1.0
1.0
1.0

4
0.0001
1.0
1.0
1.0

8
1.0
1.0
0.0001
1.0
1.0
1.0
1.0
1.0

16
0.0001
1.0
1.0
1.0
1.0
0.0001
1.0
1.0
1.0
1.0
0.0001
1.0
1.0
1.0
1.0
1.0

16
0.0001
1.0
1.0
1.0
1.0
0.0001
1.0
1.0
1.0
1.0
0.0001
1.0
1.0
1.0
1.0
1.0

16
0.0001
1.0
1.0
1.0
1.0
0.0001
1.0
1.0
1.0
1.0
0.0001
1.0
1.0
1.0
1.0
1.0

8
0.0001
1.0
1.0
1.0
0.0001
1.0
1.0
1.0

8
0.0001
1.0
1.0
1.0
0.0001
1.0
1.0
1.0

16
0.0001
1.0
1.0
1.0
1.0
0.0001
1.0
1.0
1.0
1.0
0.0001
1.0
1.0
1.0
1.0
1.0

8
0.0001
1.0
1.0
1.0
0.0001
1.0
1.0
1.0

4
0.0001
1.0
1.0
1.0

4
0.0001
1.0
1.0
1.0

16
0.0001
1.0
1.0
1.0
1.0
0.0001
1.0
1.0
1.0
1.0
0.0001
1.0
1.0
1.0
1.0
1.0

4
0.0001
1.0
1.0
1.0

8
1.0
1.0
0.0001
1.0
1.0
1.0
1.0
1.0

8
0.0001
1.0
1.0
1.0
0.0001
1.0
1.0
1.0

16
0.0001
1.0
1.0
1.0
1.0
0.0001
1.0
1.0
1.0
1.0
0.0001
1.0
1.0
1.0
1.0
1.0

4
0.0001
1.0
1.0
1.0

4
0.0001
1.0
1.0
1.0

8
0.0001
1.0
1.0
1.0
0.0001
1.0
1.0
1.0

8
1.0
1.0
0.0001
1.0
1.0
1.0
1.0
1.0

4
0.0001
1.0
1.0
1.0

4
0.0001
1.0
1.0
1.0

8
1.0
1.0
0.0001
1.0
1.0
1.0
1.0
1.0

16
0.0001
1.0
1.0
1.0
1.0
0.0001
1.0
1.0
1.0
1.0
0.0001
1.0
1.0
1.0
1.0
1.0

4
0.0001
1.0
1.0
1.0

16
0.0001
1.0
1.0
1.0
1.0
0.0001
1.0
1.0
1.0
1.0
0.0001
1.0
1.0
1.0
1.0
1.0

8
0.0001
1.0
1.0
1.0
0.0001
1.0
1.0
1.0

8
0.0001
1.0
1.0
1.0
0.0001
1.0
1.0
1.0

16
0.0001
1.0
1.0
1.0
1.0
0.0001
1.0
1.0
1.0
1.0
0.0001
1.0
1.0
1.0
1.0
1.0

16
0.0001
1.0
1.0
1.0
1.0
0.0001
1.0
1.0
1.0
1.0
0.0001
1.0
1.0
1.0
1.0
1.0

8
0.0001
1.0
0.0001
1.0
1.0
1.0
1.0
1.0

4
0.0001
1.0
1.0
1.0

4
0.0001
1.0
1.0
1.0

8
1.0
1.0
0.0001
1.0
1.0
1.0
1.0
1.0

8
1.0
1.0
0.0001
1.0
1.0
1.0
1.0
1.0

8
0.0001
1.0
0.0001
1.0
1.0
1.0
1.0
1.0

16
0.0001
1.0
1.0
1.0
1.0
0.0001
1.0
1.0
1.0
1.0
0.0001
1.0
1.0
1.0
1.0
1.0

4
0.0001
1.0
1.0
1.0

16
0.0001
1.0
1.0
1.0
1.0
0.0001
1.0
1.0
1.0
1.0
0.0001
1.0
1.0
1.0
1.0
1.0

4
0.0001
1.0
1.0
1.0

4
0.0001
1.0
1.0
1.0

8
0.0001
1.0
1.0
1.0
0.0001
1.0
1.0
1.0

4
0.0001
1.0
1.0
1.0

8
1.0
1.0
0.0001
1.0
1.0
1.0
1.0
1.0

4
0.0001
1.0
1.0
1.0

8
0.0001
1.0
1.0
1.0
0.0001
1.0
1.0
1.0

8
1.0
1.0
0.0001
1.0
1.0
1.0
1.0
1.0

4
0.0001
1.0
1.0
1.0

8
0.0001
1.0
1.0
1.0
0.0001
1.0
1.0
1.0

8
1.0
1.0
0.0001
1.0
1.0
1.0
1.0
1.0

8
1.0
1.0
0.0001
1.0
1.0
1.0
1.0
1.0

4
0.0001
1.0
1.0
1.0

4
0.0001
1.0
1.0
1.0

8
1.0
1.0
0.0001
1.0
1.0
1.0
1.0
1.0

4
0.0001
1.0
1.0
1.0

8
1.0
1.0
0.0001
1.0
1.0
1.0
1.0
1.0

16
0.0001
1.0
1.0
1.0
1.0
0.0001
1.0
1.0
1.0
1.0
0.0001
1.0
1.0
1.0
1.0
1.0

4
0.0001
1.0
1.0
1.0

8
1.0
1.0
0.0001
1.0
1.0
1.0
1.0
1.0

8
1.0
1.0
0.0001
1.0
1.0
1.0
1.0
1.0

4
0.0001
1.0
1.0
1.0

8
0.0001
1.0
0.0001
1.0
1.0
1.0
1.0
1.0

4
0.0001
1.0
1.0
1.0

16
0.0001
1.0
1.0
1.0
1.0
0.0001
1.0
1.0
1.0
1.0
0.0001
1.0
1.0
1.0
1.0
1.0

16
0.0001
1.0
1.0
1.0
1.0
0.0001
1.0
1.0
1.0
1.0
0.0001
1.0
1.0
1.0
1.0
1.0

4
0.0001
1.0
1.0
1.0

8
1.0
1.0
0.0001
1.0
1.0
1.0
1.0
1.0

8
0.0001
1.0
1.0
1.0
0.0001
1.0
1.0
1.0

4
0.0001
1.0
1.0
1.0

8
1.0
1.0
0.0001
1.0
1.0
1.0
1.0
1.0

4
0.0001
1.0
1.0
1.0

4
0.0001
1.0
1.0
1.0

4
0.0001
1.0
1.0
1.0

8
0.0001
1.0
1.0
1.0
0.0001
1.0
1.0
1.0

4
0.0001
1.0
1.0
1.0

4
0.0001
1.0
1.0
1.0

8
0.0001
1.0
1.0
1.0
0.0001
1.0
1.0
1.0

4
0.0001
1.0
1.0
1.0

16
0.0001
1.0
1.0
1.0
1.0
0.0001
1.0
1.0
1.0
1.0
0.0001
1.0
1.0
1.0
1.0
1.0

16
0.0001
1.0
1.0
1.0
1.0
0.0001
1.0
1.0
1.0
1.0
0.0001
1.0
1.0
1.0
1.0
1.0

4
0.0001
1.0
1.0
1.0

8
1.0
1.0
0.0001
1.0
1.0
1.0
1.0
1.0

8
0.0001
1.0
1.0
1.0
0.0001
1.0
1.0
1.0

8
0.0001
1.0
0.0001
1.0
1.0
1.0
1.0
1.0

8
0.0001
1.0
1.0
1.0
0.0001
1.0
1.0
1.0

4
0.0001
1.0
1.0
1.0

16
0.0001
1.0
1.0
1.0
1.0
0.0001
1.0
1.0
1.0
1.0
0.0001
1.0
1.0
1.0
1.0
1.0

8
1.0
1.0
0.0001
1.0
1.0
1.0
1.0
1.0

8
1.0
1.0
0.0001
1.0
1.0
1.0
1.0
1.0

16
0.0001
1.0
1.0
1.0
1.0
0.0001
1.0
1.0
1.0
1.0
0.0001
1.0
1.0
1.0
1.0
1.0

4
0.0001
1.0
1.0
1.0

8
0.0001
1.0
1.0
1.0
0.0001
1.0
1.0
1.0

8
0.0001
1.0
1.0
1.0
0.0001
1.0
1.0
1.0

4
0.0001
1.0
1.0
1.0

8
0.0001
1.0
1.0
1.0
0.0001
1.0
1.0
1.0

4
0.0001
1.0
1.0
1.0

4
0.0001
1.0
1.0
1.0

4
0.0001
1.0
1.0
1.0

16
0.0001
1.0
1.0
1.0
1.0
0.0001
1.0
1.0
1.0
1.0
0.0001
1.0
1.0
1.0
1.0
1.0

8
0.0001
1.0
1.0
1.0
0.0001
1.0
1.0
1.0

16
0.0001
1.0
1.0
1.0
1.0
0.0001
1.0
1.0
1.0
1.0
0.0001
1.0
1.0
1.0
1.0
1.0

16
0.0001
1.0
1.0
1.0
1.0
0.0001
1.0
1.0
1.0
1.0
0.0001
1.0
1.0
1.0
1.0
1.0

8
0.0001
1.0
0.0001
1.0
1.0
1.0
1.0
1.0

8
0.0001
1.0
1.0
1.0
0.0001
1.0
1.0
1.0

4
0.0001
1.0
1.0
1.0

4
0.0001
1.0
1.0
1.0

16
0.0001
1.0
1.0
1.0
1.0
0.0001
1.0
1.0
1.0
1.0
0.0001
1.0
1.0
1.0
1.0
1.0

8
0.0001
1.0
0.0001
1.0
1.0
1.0
1.0
1.0

4
0.0001
1.0
1.0
1.0

16
0.0001
1.0
1.0
1.0
1.0
0.0001
1.0
1.0
1.0
1.0
0.0001
1.0
1.0
1.0
1.0
1.0

8
1.0
1.0
0.0001
1.0
1.0
1.0
1.0
1.0

8
0.0001
1.0
1.0
1.0
0.0001
1.0
1.0
1.0

8
1.0
1.0
0.0001
1.0
1.0
1.0
1.0
1.0

16
0.0001
1.0
1.0
1.0
1.0
0.0001
1.0
1.0
1.0
1.0
0.0001
1.0
1.0
1.0
1.0
1.0

8
1.0
1.0
0.0001
1.0
1.0
1.0
1.0
1.0

16
0.0001
1.0
1.0
1.0
1.0
0.0001
1.0
1.0
1.0
1.0
0.0001
1.0
1.0
1.0
1.0
1.0

8
0.0001
1.0
1.0
1.0
0.0001
1.0
1.0
1.0

8
1.0
1.0
0.0001
1.0
1.0
1.0
1.0
1.0

8
0.0001
1.0
1.0
1.0
0.0001
1.0
1.0
1.0

8
0.0001
1.0
1.0
1.0
0.0001
1.0
1.0
1.0

4
0.0001
1.0
1.0
1.0

8
1.0
1.0
0.0001
1.0
1.0
1.0
1.0
1.0

8
1.0
1.0
0.0001
1.0
1.0
1.0
1.0
1.0

8
1.0
1.0
0.0001
1.0
1.0
1.0
1.0
1.0

8
1.0
1.0
0.0001
1.0
1.0
1.0
1.0
1.0

8
0.0001
1.0
1.0
1.0
0.0001
1.0
1.0
1.0

8
1.0
1.0
0.0001
1.0
1.0
1.0
1.0
1.0

4
0.0001
1.0
1.0
1.0

8
0.0001
1.0
1.0
1.0
0.0001
1.0
1.0
1.0

4
0.0001
1.0
1.0
1.0

4
0.0001
1.0
1.0
1.0

8
1.0
1.0
0.0001
1.0
1.0
1.0
1.0
1.0

4
0.0001
1.0
1.0
1.0

8
0.0001
1.0
1.0
1.0
0.0001
1.0
1.0
1.0

8
0.0001
1.0
1.0
1.0
0.0001
1.0
1.0
1.0

8
1.0
1.0
0.0001
1.0
1.0
1.0
1.0
1.0

8
0.0001
1.0
1.0
1.0
0.0001
1.0
1.0
1.0

8
1.0
1.0
0.0001
1.0
1.0
1.0
1.0
1.0

16
0.0001
1.0
1.0
1.0
1.0
0.0001
1.0
1.0
1.0
1.0
0.0001
1.0
1.0
1.0
1.0
1.0

4
0.0001
1.0
1.0
1.0

4
0.0001
1.0
1.0
1.0

4
0.0001
1.0
1.0
1.0

4
0.0001
1.0
1.0
1.0

8
1.0
1.0
0.0001
1.0
1.0
1.0
1.0
1.0

16
0.0001
1.0
1.0
1.0
1.0
0.0001
1.0
1.0
1.0
1.0
0.0001
1.0
1.0
1.0
1.0
1.0

8
1.0
1.0
0.0001
1.0
1.0
1.0
1.0
1.0

8
1.0
1.0
0.0001
1.0
1.0
1.0
1.0
1.0

4
0.0001
1.0
1.0
1.0

4
0.0001
1.0
1.0
1.0

16
0.0001
1.0
1.0
1.0
1.0
0.0001
1.0
1.0
1.0
1.0
0.0001
1.0
1.0
1.0
1.0
1.0

4
0.0001
1.0
1.0
1.0

8
0.0001
1.0
1.0
1.0
0.0001
1.0
1.0
1.0

4
0.0001
1.0
1.0
1.0

16
0.0001
1.0
1.0
1.0
1.0
0.0001
1.0
1.0
1.0
1.0
0.0001
1.0
1.0
1.0
1.0
1.0

8
1.0
1.0
0.0001
1.0
1.0
1.0
1.0
1.0

8
0.0001
1.0
0.0001
1.0
1.0
1.0
1.0
1.0

16
0.0001
1.0
1.0
1.0
1.0
0.0001
1.0
1.0
1.0
1.0
0.0001
1.0
1.0
1.0
1.0
1.0

8
0.0001
1.0
1.0
1.0
0.0001
1.0
1.0
1.0

8
0.0001
1.0
1.0
1.0
0.0001
1.0
1.0
1.0

8
1.0
1.0
0.0001
1.0
1.0
1.0
1.0
1.0

4
0.0001
1.0
1.0
1.0

8
1.0
1.0
0.0001
1.0
1.0
1.0
1.0
1.0

16
0.0001
1.0
1.0
1.0
1.0
0.0001
1.0
1.0
1.0
1.0
0.0001
1.0
1.0
1.0
1.0
1.0

4
0.0001
1.0
1.0
1.0

16
0.0001
1.0
1.0
1.0
1.0
0.0001
1.0
1.0
1.0
1.0
0.0001
1.0
1.0
1.0
1.0
1.0

4
0.0001
1.0
1.0
1.0

4
0.0001
1.0
1.0
1.0

4
0.0001
1.0
1.0
1.0

8
1.0
1.0
0.0001
1.0
1.0
1.0
1.0
1.0

4
0.0001
1.0
1.0
1.0

16
0.0001
1.0
1.0
1.0
1.0
0.0001
1.0
1.0
1.0
1.0
0.0001
1.0
1.0
1.0
1.0
1.0

4
0.0001
1.0
1.0
1.0

8
1.0
1.0
0.0001
1.0
1.0
1.0
1.0
1.0

8
1.0
1.0
0.0001
1.0
1.0
1.0
1.0
1.0

4
0.0001
1.0
1.0
1.0

8
1.0
1.0
0.0001
1.0
1.0
1.0
1.0
1.0

4
0.0001
1.0
1.0
1.0

16
0.0001
1.0
1.0
1.0
1.0
0.0001
1.0
1.0
1.0
1.0
0.0001
1.0
1.0
1.0
1.0
1.0

4
0.0001
1.0
1.0
1.0

4
0.0001
1.0
1.0
1.0

8
0.0001
1.0
1.0
1.0
0.0001
1.0
1.0
1.0

8
0.0001
1.0
1.0
1.0
0.0001
1.0
1.0
1.0

4
0.0001
1.0
1.0
1.0

16
0.0001
1.0
1.0
1.0
1.0
0.0001
1.0
1.0
1.0
1.0
0.0001
1.0
1.0
1.0
1.0
1.0

16
0.0001
1.0
1.0
1.0
1.0
0.0001
1.0
1.0
1.0
1.0
0.0001
1.0
1.0
1.0
1.0
1.0

16
0.0001
1.0
1.0
1.0
1.0
0.0001
1.0
1.0
1.0
1.0
0.0001
1.0
1.0
1.0
1.0
1.0

16
0.0001
1.0
1.0
1.0
1.0
0.0001
1.0
1.0
1.0
1.0
0.0001
1.0
1.0
1.0
1.0
1.0

16
0.0001
1.0
1.0
1.0
1.0
0.0001
1.0
1.0
1.0
1.0
0.0001
1.0
1.0
1.0
1.0
1.0

16
0.0001
1.0
1.0
1.0
1.0
0.0001
1.0
1.0
1.0
1.0
0.0001
1.0
1.0
1.0
1.0
1.0

8
1.0
1.0
0.0001
1.0
1.0
1.0
1.0
1.0

16
0.0001
1.0
1.0
1.0
1.0
0.0001
1.0
1.0
1.0
1.0
0.0001
1.0
1.0
1.0
1.0
1.0

4
0.0001
1.0
1.0
1.0

16
0.0001
1.0
1.0
1.0
1.0
0.0001
1.0
1.0
1.0
1.0
0.0001
1.0
1.0
1.0
1.0
1.0

4
0.0001
1.0
1.0
1.0

16
0.0001
1.0
1.0
1.0
1.0
0.0001
1.0
1.0
1.0
1.0
0.0001
1.0
1.0
1.0
1.0
1.0

4
0.0001
1.0
1.0
1.0

8
0.0001
1.0
1.0
1.0
0.0001
1.0
1.0
1.0

8
0.0001
1.0
0.0001
1.0
1.0
1.0
1.0
1.0

4
0.0001
1.0
1.0
1.0

8
0.0001
1.0
0.0001
1.0
1.0
1.0
1.0
1.0

16
0.0001
1.0
1.0
1.0
1.0
0.0001
1.0
1.0
1.0
1.0
0.0001
1.0
1.0
1.0
1.0
1.0

4
0.0001
1.0
1.0
1.0

8
0.0001
1.0
0.0001
1.0
1.0
1.0
1.0
1.0

8
0.0001
1.0
1.0
1.0
0.0001
1.0
1.0
1.0

4
0.0001
1.0
1.0
1.0

4
0.0001
1.0
1.0
1.0

8
0.0001
1.0
1.0
1.0
0.0001
1.0
1.0
1.0

4
0.0001
1.0
1.0
1.0

8
0.0001
1.0
1.0
1.0
0.0001
1.0
1.0
1.0

4
0.0001
1.0
1.0
1.0

8
1.0
1.0
0.0001
1.0
1.0
1.0
1.0
1.0

8
0.0001
1.0
1.0
1.0
0.0001
1.0
1.0
1.0

4
0.0001
1.0
1.0
1.0

8
1.0
1.0
0.0001
1.0
1.0
1.0
1.0
1.0

8
1.0
1.0
0.0001
1.0
1.0
1.0
1.0
1.0

8
1.0
1.0
0.0001
1.0
1.0
1.0
1.0
1.0

4
0.0001
1.0
1.0
1.0

8
1.0
1.0
0.0001
1.0
1.0
1.0
1.0
1.0

8
1.0
1.0
0.0001
1.0
1.0
1.0
1.0
1.0

8
1.0
1.0
0.0001
1.0
1.0
1.0
1.0
1.0

8
0.0001
1.0
1.0
1.0
0.0001
1.0
1.0
1.0

4
0.0001
1.0
1.0
1.0

8
0.0001
1.0
1.0
1.0
0.0001
1.0
1.0
1.0

4
0.0001
1.0
1.0
1.0

16
0.0001
1.0
1.0
1.0
1.0
0.0001
1.0
1.0
1.0
1.0
0.0001
1.0
1.0
1.0
1.0
1.0

8
1.0
1.0
0.0001
1.0
1.0
1.0
1.0
1.0

4
0.0001
1.0
1.0
1.0

16
0.0001
1.0
1.0
1.0
1.0
0.0001
1.0
1.0
1.0
1.0
0.0001
1.0
1.0
1.0
1.0
1.0

4
0.0001
1.0
1.0
1.0

8
1.0
1.0
0.0001
1.0
1.0
1.0
1.0
1.0

16
0.0001
1.0
1.0
1.0
1.0
0.0001
1.0
1.0
1.0
1.0
0.0001
1.0
1.0
1.0
1.0
1.0

4
0.0001
1.0
1.0
1.0

4
0.0001
1.0
1.0
1.0

8
1.0
1.0
0.0001
1.0
1.0
1.0
1.0
1.0

4
0.0001
1.0
1.0
1.0

8
1.0
1.0
0.0001
1.0
1.0
1.0
1.0
1.0

16
0.0001
1.0
1.0
1.0
1.0
0.0001
1.0
1.0
1.0
1.0
0.0001
1.0
1.0
1.0
1.0
1.0

4
0.0001
1.0
1.0
1.0

4
0.0001
1.0
1.0
1.0

8
0.0001
1.0
1.0
1.0
0.0001
1.0
1.0
1.0

8
1.0
1.0
0.0001
1.0
1.0
1.0
1.0
1.0

4
0.0001
1.0
1.0
1.0

8
0.0001
1.0
1.0
1.0
0.0001
1.0
1.0
1.0

16
0.0001
1.0
1.0
1.0
1.0
0.0001
1.0
1.0
1.0
1.0
0.0001
1.0
1.0
1.0
1.0
1.0

4
0.0001
1.0
1.0
1.0

16
0.0001
1.0
1.0
1.0
1.0
0.0001
1.0
1.0
1.0
1.0
0.0001
1.0
1.0
1.0
1.0
1.0

4
0.0001
1.0
1.0
1.0

4
0.0001
1.0
1.0
1.0

8
1.0
1.0
0.0001
1.0
1.0
1.0
1.0
1.0

8
1.0
1.0
0.0001
1.0
1.0
1.0
1.0
1.0

16
0.0001
1.0
1.0
1.0
1.0
0.0001
1.0
1.0
1.0
1.0
0.0001
1.0
1.0
1.0
1.0
1.0

8
1.0
1.0
0.0001
1.0
1.0
1.0
1.0
1.0

4
0.0001
1.0
1.0
1.0

16
0.0001
1.0
1.0
1.0
1.0
0.0001
1.0
1.0
1.0
1.0
0.0001
1.0
1.0
1.0
1.0
1.0

4
0.0001
1.0
1.0
1.0

8
1.0
1.0
0.0001
1.0
1.0
1.0
1.0
1.0

8
1.0
1.0
0.0001
1.0
1.0
1.0
1.0
1.0

4
0.0001
1.0
1.0
1.0

16
0.0001
1.0
1.0
1.0
1.0
0.0001
1.0
1.0
1.0
1.0
0.0001
1.0
1.0
1.0
1.0
1.0

4
0.0001
1.0
1.0
1.0

16
0.0001
1.0
1.0
1.0
1.0
0.0001
1.0
1.0
1.0
1.0
0.0001
1.0
1.0
1.0
1.0
1.0

16
0.0001
1.0
1.0
1.0
1.0
0.0001
1.0
1.0
1.0
1.0
0.0001
1.0
1.0
1.0
1.0
1.0

16
0.0001
1.0
1.0
1.0
1.0
0.0001
1.0
1.0
1.0
1.0
0.0001
1.0
1.0
1.0
1.0
1.0

4
0.0001
1.0
1.0
1.0

4
0.0001
1.0
1.0
1.0

4
0.0001
1.0
1.0
1.0

16
0.0001
1.0
1.0
1.0
1.0
0.0001
1.0
1.0
1.0
1.0
0.0001
1.0
1.0
1.0
1.0
1.0

8
0.0001
1.0
1.0
1.0
0.0001
1.0
1.0
1.0

4
0.0001
1.0
1.0
1.0

4
0.0001
1.0
1.0
1.0

4
0.0001
1.0
1.0
1.0

4
0.0001
1.0
1.0
1.0

8
1.0
1.0
0.0001
1.0
1.0
1.0
1.0
1.0

8
0.0001
1.0
1.0
1.0
0.0001
1.0
1.0
1.0

4
0.0001
1.0
1.0
1.0

16
0.0001
1.0
1.0
1.0
1.0
0.0001
1.0
1.0
1.0
1.0
0.0001
1.0
1.0
1.0
1.0
1.0

16
0.0001
1.0
1.0
1.0
1.0
0.0001
1.0
1.0
1.0
1.0
0.0001
1.0
1.0
1.0
1.0
1.0

8
0.0001
1.0
0.0001
1.0
1.0
1.0
1.0
1.0

4
0.0001
1.0
1.0
1.0

4
0.0001
1.0
1.0
1.0

16
0.0001
1.0
1.0
1.0
1.0
0.0001
1.0
1.0
1.0
1.0
0.0001
1.0
1.0
1.0
1.0
1.0

4
0.0001
1.0
1.0
1.0

4
0.0001
1.0
1.0
1.0

4
0.0001
1.0
1.0
1.0

8
0.0001
1.0
1.0
1.0
0.0001
1.0
1.0
1.0

4
0.0001
1.0
1.0
1.0

8
1.0
1.0
0.0001
1.0
1.0
1.0
1.0
1.0

4
0.0001
1.0
1.0
1.0

8
0.0001
1.0
1.0
1.0
0.0001
1.0
1.0
1.0

4
0.0001
1.0
1.0
1.0

16
0.0001
1.0
1.0
1.0
1.0
0.0001
1.0
1.0
1.0
1.0
0.0001
1.0
1.0
1.0
1.0
1.0

8
0.0001
1.0
1.0
1.0
0.0001
1.0
1.0
1.0

8
1.0
1.0
0.0001
1.0
1.0
1.0
1.0
1.0

16
0.0001
1.0
1.0
1.0
1.0
0.0001
1.0
1.0
1.0
1.0
0.0001
1.0
1.0
1.0
1.0
1.0

4
0.0001
1.0
1.0
1.0

8
1.0
1.0
0.0001
1.0
1.0
1.0
1.0
1.0

8
0.0001
1.0
1.0
1.0
0.0001
1.0
1.0
1.0

16
0.0001
1.0
1.0
1.0
1.0
0.0001
1.0
1.0
1.0
1.0
0.0001
1.0
1.0
1.0
1.0
1.0

8
1.0
1.0
0.0001
1.0
1.0
1.0
1.0
1.0

4
0.0001
1.0
1.0
1.0

4
0.0001
1.0
1.0
1.0

4
0.0001
1.0
1.0
1.0

4
0.0001
1.0
1.0
1.0

4
0.0001
1.0
1.0
1.0

8
0.0001
1.0
1.0
1.0
0.0001
1.0
1.0
1.0

8
1.0
1.0
0.0001
1.0
1.0
1.0
1.0
1.0

16
0.0001
1.0
1.0
1.0
1.0
0.0001
1.0
1.0
1.0
1.0
0.0001
1.0
1.0
1.0
1.0
1.0

8
0.0001
1.0
1.0
1.0
0.0001
1.0
1.0
1.0

8
1.0
1.0
0.0001
1.0
1.0
1.0
1.0
1.0

4
0.0001
1.0
1.0
1.0

8
1.0
1.0
0.0001
1.0
1.0
1.0
1.0
1.0

8
0.0001
1.0
1.0
1.0
0.0001
1.0
1.0
1.0

16
0.0001
1.0
1.0
1.0
1.0
0.0001
1.0
1.0
1.0
1.0
0.0001
1.0
1.0
1.0
1.0
1.0

4
0.0001
1.0
1.0
1.0

8
1.0
1.0
0.0001
1.0
1.0
1.0
1.0
1.0

4
0.0001
1.0
1.0
1.0

8
1.0
1.0
0.0001
1.0
1.0
1.0
1.0
1.0

4
0.0001
1.0
1.0
1.0

8
0.0001
1.0
0.0001
1.0
1.0
1.0
1.0
1.0

16
0.0001
1.0
1.0
1.0
1.0
0.0001
1.0
1.0
1.0
1.0
0.0001
1.0
1.0
1.0
1.0
1.0

4
0.0001
1.0
1.0
1.0

8
1.0
1.0
0.0001
1.0
1.0
1.0
1.0
1.0

4
0.0001
1.0
1.0
1.0

8
1.0
1.0
0.0001
1.0
1.0
1.0
1.0
1.0

8
1.0
1.0
0.0001
1.0
1.0
1.0
1.0
1.0

8
1.0
1.0
0.0001
1.0
1.0
1.0
1.0
1.0

16
0.0001
1.0
1.0
1.0
1.0
0.0001
1.0
1.0
1.0
1.0
0.0001
1.0
1.0
1.0
1.0
1.0

4
0.0001
1.0
1.0
1.0

8
0.0001
1.0
0.0001
1.0
1.0
1.0
1.0
1.0

4
0.0001
1.0
1.0
1.0

16
0.0001
1.0
1.0
1.0
1.0
0.0001
1.0
1.0
1.0
1.0
0.0001
1.0
1.0
1.0
1.0
1.0

4
0.0001
1.0
1.0
1.0

8
1.0
1.0
0.0001
1.0
1.0
1.0
1.0
1.0

8
1.0
1.0
0.0001
1.0
1.0
1.0
1.0
1.0

16
0.0001
1.0
1.0
1.0
1.0
0.0001
1.0
1.0
1.0
1.0
0.0001
1.0
1.0
1.0
1.0
1.0

8
1.0
1.0
0.0001
1.0
1.0
1.0
1.0
1.0

4
0.0001
1.0
1.0
1.0

8
1.0
1.0
0.0001
1.0
1.0
1.0
1.0
1.0

16
0.0001
1.0
1.0
1.0
1.0
0.0001
1.0
1.0
1.0
1.0
0.0001
1.0
1.0
1.0
1.0
1.0

16
0.0001
1.0
1.0
1.0
1.0
0.0001
1.0
1.0
1.0
1.0
0.0001
1.0
1.0
1.0
1.0
1.0

4
0.0001
1.0
1.0
1.0

8
1.0
1.0
0.0001
1.0
1.0
1.0
1.0
1.0

8
1.0
1.0
0.0001
1.0
1.0
1.0
1.0
1.0

8
1.0
1.0
0.0001
1.0
1.0
1.0
1.0
1.0

4
0.0001
1.0
1.0
1.0

8
0.0001
1.0
1.0
1.0
0.0001
1.0
1.0
1.0

4
0.0001
1.0
1.0
1.0

16
0.0001
1.0
1.0
1.0
1.0
0.0001
1.0
1.0
1.0
1.0
0.0001
1.0
1.0
1.0
1.0
1.0

4
0.0001
1.0
1.0
1.0

4
0.0001
1.0
1.0
1.0

4
0.0001
1.0
1.0
1.0

16
0.0001
1.0
1.0
1.0
1.0
0.0001
1.0
1.0
1.0
1.0
0.0001
1.0
1.0
1.0
1.0
1.0

8
1.0
1.0
0.0001
1.0
1.0
1.0
1.0
1.0

8
1.0
1.0
0.0001
1.0
1.0
1.0
1.0
1.0

16
0.0001
1.0
1.0
1.0
1.0
0.0001
1.0
1.0
1.0
1.0
0.0001
1.0
1.0
1.0
1.0
1.0

4
0.0001
1.0
1.0
1.0

4
0.0001
1.0
1.0
1.0

4
0.0001
1.0
1.0
1.0

4
0.0001
1.0
1.0
1.0

4
0.0001
1.0
1.0
1.0

8
1.0
1.0
0.0001
1.0
1.0
1.0
1.0
1.0

4
0.0001
1.0
1.0
1.0

16
0.0001
1.0
1.0
1.0
1.0
0.0001
1.0
1.0
1.0
1.0
0.0001
1.0
1.0
1.0
1.0
1.0

8
0.0001
1.0
1.0
1.0
0.0001
1.0
1.0
1.0

8
1.0
1.0
0.0001
1.0
1.0
1.0
1.0
1.0

8
0.0001
1.0
1.0
1.0
0.0001
1.0
1.0
1.0

8
0.0001
1.0
1.0
1.0
0.0001
1.0
1.0
1.0

8
1.0
1.0
0.0001
1.0
1.0
1.0
1.0
1.0

8
1.0
1.0
0.0001
1.0
1.0
1.0
1.0
1.0

16
0.0001
1.0
1.0
1.0
1.0
0.0001
1.0
1.0
1.0
1.0
0.0001
1.0
1.0
1.0
1.0
1.0

4
0.0001
1.0
1.0
1.0

16
0.0001
1.0
1.0
1.0
1.0
0.0001
1.0
1.0
1.0
1.0
0.0001
1.0
1.0
1.0
1.0
1.0

8
0.0001
1.0
1.0
1.0
0.0001
1.0
1.0
1.0

8
0.0001
1.0
1.0
1.0
0.0001
1.0
1.0
1.0

2
1.0
0.999083603468

2
1.0
0.999083603468

2
1.0
0.999083603468

2
1.0
0.999083603468

2
1.0
0.999083603468

2
1.0
0.999083603468

2
1.0
0.999083603468

2
1.0
0.999083603468

2
1.0
0.999083603468

2
1.0
0.999083603468

2
1.0
0.999083603468

2
1.0
0.999083603468

2
1.0
0.999083603468

2
1.0
0.999083603468

2
1.0
0.999083603468

2
1.0
0.999083603468

2
1.0
0.999083603468

2
1.0
0.999083603468

2
1.0
0.999083603468

2
1.0
0.999083603468

4
1.0
1.0
1.0
0.632289234352

4
1.0
1.0
1.0
0.632289234352

2
1.0
0.632289234352

2
1.0
0.632289234352

2
1.0
0.632289234352

2
1.0
0.632289234352

2
1.0
0.632289234352

2
1.0
0.632289234352

2
1.0
0.632289234352

2
1.0
0.632289234352

2
1.0
0.632289234352

2
1.0
0.632289234352

2
1.0
0.632289234352

2
1.0
0.632289234352

2
1.0
0.632289234352

2
1.0
0.632289234352

2
1.0
0.632289234352

2
1.0
0.632289234352

2
1.0
0.999083603468

2
1.0
0.999083603468

2
1.0
0.999541696713

2
1.0
0.999541696713

2
1.0
0.999541696713

2
1.0
0.999541696713

2
1.0
0.999541696713

2
1.0
0.999541696713

2
1.0
0.999541696713

2
1.0
0.999541696713

2
1.0
0.999541696713

2
1.0
0.999541696713

2
1.0
0.999083603468

2
1.0
0.999083603468

2
1.0
0.999541696713

2
1.0
0.999541696713

4
1.0
1.0
1.0
0.999541696713

4
1.0
1.0
1.0
0.999541696713

4
1.0
1.0
1.0
0.999541696713

2
1.0
0.999083603468

2
1.0
0.999083603468

2
1.0
0.999083603468

2
1.0
0.999541696713

2
1.0
0.999541696713

4
1.0
1.0
1.0
0.999541696713

4
1.0
1.0
1.0
0.999541696713

4
1.0
1.0
1.0
0.999541696713

4
1.0
1.0
1.0
0.999541696713

4
1.0
1.0
1.0
0.999541696713

2
1.0
0.999083603468

2
1.0
0.999083603468

2
1.0
0.999541696713

2
1.0
0.999541696713

4
1.0
1.0
1.0
0.999541696713

4
1.0
1.0
1.0
0.999541696713

4
1.0
1.0
1.0
0.999541696713

2
1.0
0.632289234352

4
1.0
1.0
1.0
0.999541696713

4
1.0
1.0
1.0
0.999541696713

4
1.0
1.0
1.0
0.999541696713

4
1.0
1.0
1.0
0.999541696713

2
1.0
0.632289234352

4
1.0
1.0
1.0
0.999541696713

4
1.0
1.0
1.0
0.999541696713

